NAME : bier127.tsp
TYPE : TOUR
DIMENSION : 127
TOUR_LENGTH : 126625.23500640281
TOUR_SECTION
1
16
37
36
41
14
12
31
27
30
43
34
39
42
38
26
25
33
122
28
29
32
80
79
77
18
21
17
22
4
23
24
108
6
106
15
20
19
72
8
9
11
114
105
7
120
13
115
50
51
2
35
40
44
45
103
54
57
121
5
56
124
52
66
55
47
49
53
118
48
46
94
112
111
107
127
93
95
123
97
98
101
102
63
119
96
109
110
85
86
87
88
104
125
89
92
99
65
113
64
58
100
10
3
90
116
60
62
61
91
59
67
73
74
68
71
70
69
75
76
78
117
84
81
126
82
83
-1
